c User generated cnf file
p cnf 14 20
2 -5 8 0 
1 -9 13 0 
5 7 -3 0 
10 14 -9 0 
7 11 -7 0 
4 -13 9 0 
4 -2 14 0 
13 1 -4 0 
9 4 -3 0 
4 -1 7 0 
14 9 -1 0 
9 1 -13 0 
5 5 -1 0 
4 -14 7 0 
13 -13 11 0 
5 -14 1 0 
8 -7 1 0 
9 11 -14 0 
5 12 -3 0 
3 5 -3 0 
